Ordonnancement/plne/source/petit_instance/2job/2job_6.dat
data;
param nombreJob := 2;
param nombreRessource := 3;
param duree := 1 7 2 6;
param capaciteRessource := 1 7 2 8 3 19;
param besoinRessource : 1 2 3 :=
                    1   2 1 7
                    2   4 4 8;
end;

